; benchmark generated from python API
(set-info :status unknown)
(declare-fun S_1 () Real)
(declare-fun S_2 () Real)
(declare-fun A_2 () Real)
(declare-fun L_2 () Real)
(declare-fun A_1 () Real)
(declare-fun L_1 () Real)
(declare-fun S_3 () Real)
(declare-fun S_4 () Real)
(declare-fun A_3 () Real)
(declare-fun L_3 () Real)
(declare-fun S_0 () Real)
(declare-fun L_0 () Real)
(declare-fun A_0 () Real)
(declare-fun A_4 () Real)
(declare-fun Q_4 () Real)
(assert
 (let (($x1487 (>= Q_4 0.0)))
 (let (($x86662 (not (<= 0.0 (+ L_1 S_0 (* (- 1.0) A_0))))))
 (let (($x80277 (<= (+ (* (- 1.0) Q_4) (* (- 1.0) A_0) L_0 (* (- 1.0) L_1) A_1) 5.0)))
 (let (($x84299 (not $x80277)))
 (let (($x3897 (not (= Q_4 0.0))))
 (let ((?x773 (* (- 1.0) L_0)))
 (let ((?x782 (* (- 1.0) L_1)))
 (let (($x678 (= ?x782 ?x773)))
 (let (($x74739 (not (<= 0.0 (+ S_3 L_3 (* (- 1.0) A_3))))))
 (let ((?x803 (* (- 1.0) A_3)))
 (let ((?x784 (* (- 1.0) A_0)))
 (let ((?x791 (* (- 1.0) L_2)))
 (let ((?x5732 (+ A_2 ?x791 ?x782 A_1 L_3 L_0 ?x784 ?x803)))
 (let (($x7402 (<= ?x5732 0.0)))
 (let (($x9527 (not $x7402)))
 (let (($x82027 (not (<= (+ L_1 (* (- 1.0) Q_4) (* (- 1.0) A_1) ?x791 A_2) 5.0))))
 (let (($x9750 (<= (+ ?x782 L_2) 0.0)))
 (let (($x1952 (<= Q_4 0.0)))
 (let (($x3733 (not $x1952)))
 (let (($x74578 (not (<= 0.0 (+ ?x784 S_0 L_1)))))
 (let ((?x794 (* (- 1.0) A_2)))
 (let ((?x1792 (* 2.0 A_1)))
 (let ((?x1437 (* (- 2.0) L_1)))
 (let ((?x740 (* (- 1.0) Q_4)))
 (let (($x5357 (<= (+ ?x740 ?x784 L_0 ?x1437 L_2 ?x1792 ?x794) 0.0)))
 (let (($x5333 (not $x5357)))
 (let ((?x1840 (* (- 2.0) A_1)))
 (let ((?x1448 (* 2.0 L_1)))
 (let ((?x1839 (* 2.0 Q_4)))
 (let (($x32344 (not (<= (+ ?x740 (* (- 1.0) S_1) ?x782 A_1) 0.0))))
 (let (($x205840 (or $x9750 $x32344 (not (<= (+ ?x1839 A_2 ?x791 A_0 ?x773 ?x1448 ?x1840) 0.0)))))
 (let (($x5252 (<= (+ L_3 ?x791) 0.0)))
 (let (($x5587 (not $x5252)))
 (let ((?x785 (* (- 1.0) A_1)))
 (let ((?x800 (* (- 1.0) L_3)))
 (let ((?x835 (* (- 1.0) A_4)))
 (let (($x1784 (not (<= (+ (* (- 2.0) Q_4) ?x784 L_0 ?x1437 L_2 ?x1792 ?x794) 0.0))))
 (let (($x104867 (or $x1784 (not (<= (+ ?x835 ?x800 A_3 L_1 ?x785 A_2) 0.0)) $x3733 $x5587 $x9750)))
 (let ((?x10048 (* (- (/ 1.0 2.0)) L_0)))
 (let ((?x9567 (* (- (/ 1.0 2.0)) A_0)))
 (let (($x2275 (<= (+ ?x1437 ?x1792 (* (- 1.0) S_3) L_0 ?x784) 0.0)))
 (let (($x2258 (<= (+ ?x740 (* (- 1.0) S_3) ?x791 A_2) 0.0)))
 (let (($x86641 (or $x678 $x2258 $x2275 (<= (+ A_0 ?x773 (* (- 1.0) S_3) ?x800 L_1 ?x785 A_3) 0.0) (<= (+ ?x9567 ?x10048 (* (- (/ 3.0 2.0)) S_3) S_0 L_1 ?x800 A_3) 0.0))))
 (let (($x84866 (<= (+ (* 2.0 A_0) ?x773 (* (- 1.0) S_1) L_3 ?x782 ?x803) (- 15.0))))
 (let (($x88189 (or $x5252 (<= (+ A_2 ?x791 ?x782 (* (- 1.0) S_1) L_3 A_0 ?x803) (- 5.0)) (<= (+ ?x1437 A_1 (* (- 1.0) S_1) L_3 A_0 ?x803) (- 10.0)) $x84866)))
 (let ((?x1843 (* (- 1.0) S_1)))
 (let ((?x25631 (* (/ 3.0 2.0) S_2)))
 (let ((?x10099 (* (/ 1.0 2.0) L_0)))
 (let ((?x10018 (* (/ 1.0 2.0) A_0)))
 (let ((?x1775 (* 3.0 A_1)))
 (let ((?x1830 (* (- 3.0) L_1)))
 (let ((?x1832 (* 2.0 L_0)))
 (let ((?x1831 (* (- 2.0) A_0)))
 (let ((?x1812 (* (- 2.0) Q_4)))
 (let (($x4406 (<= (+ ?x1812 ?x1831 ?x1832 ?x1830 L_3 ?x1775 ?x803) 0.0)))
 (let (($x4340 (not $x4406)))
 (let (($x76588 (<= 0.0 ?x5732)))
 (let (($x37246 (<= (+ (* (- 4.0) L_1) ?x1775 (* (- 1.0) S_0) L_3 ?x1832 ?x784 ?x803) 0.0)))
 (let (($x200613 (or $x678 $x2258 (not $x37246) (<= (+ A_1 (* (- 2.0) S_3) S_0 ?x800 ?x784 A_3) 0.0) $x76588)))
 (let ((?x1833 (* (- 3.0) A_1)))
 (let ((?x1789 (* 3.0 L_1)))
 (let ((?x1788 (* (- 2.0) L_0)))
 (let ((?x1816 (* 2.0 A_0)))
 (let (($x4361 (not (<= (+ ?x740 ?x1816 ?x1788 ?x1789 ?x800 ?x1833 A_3) 0.0))))
 (let (($x73864 (not (<= 0.0 (+ S_2 L_2 ?x794)))))
 (let (($x5844 (<= (+ ?x1839 ?x800 A_3 ?x782 A_1 (* 2.0 L_2) (* (- 2.0) A_2)) 0.0)))
 (let (($x99375 (or $x5252 (<= (+ ?x785 (* 2.0 S_2) ?x1843 L_3 A_0 ?x803) 0.0))))
 (let ((?x30969 (* (/ 2.0 3.0) S_3)))
 (let ((?x29670 (* (- (/ 1.0 3.0)) L_0)))
 (let ((?x64790 (* (/ 4.0 3.0) A_0)))
 (let ((?x1439 (* (- 2.0) A_2)))
 (let ((?x1438 (* 2.0 L_2)))
 (let ((?x1436 (* (- 2.0) S_1)))
 (let (($x91483 (or $x9750 (<= (+ ?x1830 A_1 S_3 ?x1436 ?x1438 ?x1816 ?x1439) 0.0) (<= (+ ?x64790 ?x29670 ?x30969 ?x1843 L_2 ?x782 ?x794) 0.0))))
 (let ((?x17829 (* (- (/ 1.0 2.0)) S_4)))
 (let ((?x18166 (* (- (/ 1.0 2.0)) A_1)))
 (let ((?x17758 (* (/ 3.0 2.0) L_1)))
 (let (($x2215 (<= (+ ?x800 A_3 (* (- 1.0) S_4)) 0.0)))
 (let (($x1877 (<= (+ Q_4 A_0 ?x773 ?x1448 ?x791 ?x1840 A_2) 0.0)))
 (let (($x94857 (or $x678 $x1877 $x2215 (<= (+ ?x17758 ?x18166 ?x17829 S_0 ?x791 ?x784 A_2) 0.0))))
 (let (($x93746 (or $x9750 (<= (+ ?x1437 A_1 ?x1843 L_2 A_0 ?x794) (- 5.0)) (<= (+ ?x1816 ?x773 ?x1843 L_2 ?x782 ?x794) (- 10.0)))))
 (let ((?x2710 (* (- 3.0) A_3)))
 (let ((?x2715 (* 3.0 A_2)))
 (let ((?x2720 (* (- 3.0) L_2)))
 (let ((?x1425 (* 3.0 L_3)))
 (let ((?x2551 (* (- 2.0) A_3)))
 (let ((?x1450 (* 2.0 A_2)))
 (let ((?x1449 (* (- 2.0) L_2)))
 (let ((?x2667 (* 2.0 L_3)))
 (let ((?x3976 (* 2.0 A_3)))
 (let ((?x2739 (* (- 3.0) A_2)))
 (let ((?x2738 (* 3.0 L_2)))
 (let ((?x2701 (* (- 2.0) L_3)))
 (let (($x206394 (or (<= (+ ?x1816 ?x773 ?x1843 ?x2701 ?x782 ?x2738 ?x2739 ?x3976) 0.0) $x9750 (<= (+ ?x1437 A_1 ?x1843 ?x800 ?x1438 A_0 ?x1439 A_3) 0.0))))
 (let ((?x2802 (* 3.0 A_3)))
 (let ((?x1380 (* (- 3.0) L_3)))
 (let ((?x5338 (* (- 2.0) S_4)))
 (let (($x10376 (<= (+ (* (- 1.0) S_4) L_1 S_0 ?x800 ?x784 A_3) 0.0)))
 (let ((?x7669 (* (/ 1.0 2.0) L_3)))
 (let ((?x7633 (* (/ 1.0 2.0) A_4)))
 (let ((?x7622 (* (- (/ 1.0 2.0)) L_2)))
 (let ((?x7655 (* (/ 1.0 2.0) A_2)))
 (let (($x35969 (<= (+ ?x5338 (* (- 4.0) A_0) L_0 (* 3.0 S_0) ?x2720 ?x1789 ?x2715) 0.0)))
 (let (($x91176 (or $x678 $x2215 (<= (+ (* (- 1.0) S_4) A_0 ?x773 ?x1789 ?x2720 ?x1833 ?x2715) 0.0) $x35969)))
 (let (($x2167 (<= (+ ?x782 A_1 (* (- 1.0) S_2)) 0.0)))
 (let (($x207359 (or $x2167 (<= (+ A_0 ?x773 (* (- 1.0) S_2) ?x800 L_2 ?x794 A_3) 0.0) $x9750)))
 (let (($x104710 (or $x678 $x2167 (<= (+ A_0 ?x773 (* (- 1.0) S_2) L_1 ?x791 ?x785 A_2) 0.0) (<= (+ ?x773 (* (- 2.0) S_2) S_0 ?x791 L_1 A_2) 0.0))))
 (let (($x207866 (or $x678 $x5252 (<= (+ ?x1448 ?x785 S_0 L_3 ?x1449 ?x784 ?x1450 ?x803) 0.0) $x76588)))
 (let (($x204355 (or $x5252 (not (<= (- 5.0) (+ A_2 ?x791 L_3 ?x803))) (not (<= (+ A_2 ?x791 L_1 ?x785) 5.0)) (not (<= (+ A_2 ?x791 ?x784 L_0) 10.0)))))
 (let (($x17830 (<= (+ (* (- (/ 3.0 2.0)) L_1) (* (/ 3.0 2.0) A_1) ?x17829 L_0 ?x784) 0.0)))
 (let (($x95136 (or (<= (+ (* (- 1.0) S_4) A_0 ?x773 ?x1380 ?x2738 ?x2739 ?x2802) 0.0) $x9750 $x17830)))
 (let (($x39500 (<= (+ (* (- (/ 1.0 2.0)) L_1) (* (/ 1.0 2.0) A_1) ?x17829 L_2 ?x800 ?x794 A_3) 0.0)))
 (let (($x205432 (or $x5252 $x7402 (<= (+ ?x1831 ?x1832 (* 2.0 S_1) L_3 ?x782 A_1 ?x803) 0.0))))
 (let (($x37451 (<= (+ L_3 L_1 ?x1449 ?x785 ?x1450 ?x803) 0.0)))
 (let (($x4233 (<= (+ ?x1831 L_0 S_0 ?x2667 L_1 ?x2720 ?x2715 ?x2551) 0.0)))
 (let (($x31930 (<= (+ L_1 (* (- 1.0) S_3) S_0 ?x791 ?x784 A_2) 0.0)))
 (let (($x90857 (or $x678 (<= (+ A_0 ?x773 (* (- 1.0) S_3) ?x1448 ?x1449 ?x1840 ?x1450) 0.0) $x31930)))
 (let (($x206074 (or $x678 $x3733 (not (<= (+ ?x835 A_3 ?x784 L_0 ?x782 A_1) 0.0)) $x74578)))
 (let (($x207342 (or $x5252 $x7402 (<= (+ ?x1831 ?x1832 (* 2.0 S_3) ?x1425 ?x1830 ?x1775 ?x2710) 0.0))))
 (let (($x102916 (or $x2275 $x9750 (<= (+ A_0 ?x773 (* (- 1.0) S_3) ?x2701 ?x1438 ?x1439 ?x3976) 0.0))))
 (let (($x204270 (or $x678 $x2167 (<= (+ ?x1816 ?x1788 (* (- 2.0) S_2) ?x800 L_1 ?x785 A_3) 0.0) (<= (+ A_0 ?x1788 (* (- 3.0) S_2) S_0 ?x800 L_1 A_3) 0.0))))
 (let (($x78994 (<= (+ A_0 ?x773 (* (- 1.0) S_4)) (- 15.0))))
 (let (($x85020 (or $x2215 (<= (+ (* (- 1.0) S_4) A_2 ?x791) (- 5.0)) (<= (+ ?x782 L_2 A_1 ?x794) (- 5.0)) $x78994)))
 (let (($x87307 (or $x2215 (<= (+ (* (- 1.0) S_4) A_2 ?x791 ?x784 L_0 S_1) 0.0) (<= (+ ?x1831 ?x1832 (* (- 1.0) S_4) (* 3.0 S_1)) 0.0))))
 (let (($x2685 (<= (+ ?x1448 Q_4 ?x835 ?x1840 (* 3.0 S_2) L_3) 0.0)))
 (let (($x202942 (or $x1952 $x2685 (<= (+ Q_4 ?x835 ?x800 A_3 L_1 ?x785 S_2 L_2) 0.0))))
 (let ((?x1484 (* (- 4.0) A_3)))
 (let ((?x1410 (* 3.0 A_4)))
 (let ((?x1419 (* (- 3.0) Q_4)))
 (let ((?x1485 (+ ?x1419 ?x1410 A_0 ?x773 L_3 ?x1484)))
 (let (($x74188 (<= 0.0 ?x1485)))
 (let (($x13212 (<= (+ ?x740 A_4 A_2 ?x791 ?x5338 ?x800) 0.0)))
 (let (($x2229 (<= (+ ?x740 ?x782 ?x1843 A_0) 0.0)))
 (let ((?x1479 (* (- 4.0) A_1)))
 (let ((?x1478 (* 4.0 L_1)))
 (let ((?x1429 (* (- 3.0) L_0)))
 (let ((?x1428 (* 3.0 A_0)))
 (let (($x1481 (<= (+ ?x740 A_4 ?x1428 ?x1429 ?x800 ?x1478 ?x1479) 0.0)))
 (let (($x1382 (not $x1481)))
 (let (($x1367 (<= (+ ?x1419 ?x1410 A_0 ?x773 (* (- 4.0) S_4) ?x1380) 0.0)))
 (let ((?x1442 (* (- 3.0) A_0)))
 (let ((?x1443 (* 3.0 L_0)))
 (let ((?x1459 (* 4.0 A_1)))
 (let ((?x1471 (* (- 4.0) L_1)))
 (let (($x2737 (<= (+ ?x1471 Q_4 ?x835 ?x1459 L_3 ?x1443 ?x1442) 0.0)))
 (let (($x2697 (not $x2737)))
 (let (($x200980 (or $x2229 $x2697 (<= (+ ?x1437 ?x740 A_4 ?x1792 ?x800 ?x2738 ?x2739) 0.0) $x13212 $x74188)))
 (let (($x75128 (<= (+ Q_4 ?x835 A_2 ?x791 L_3) (- 10.0))))
 (let (($x73309 (<= (+ ?x782 Q_4 ?x835 A_1 L_3) (- 15.0))))
 (let (($x674 (<= (+ Q_4 ?x835 A_0 ?x773 L_3) (- 20.0))))
 (let (($x84998 (or $x674 $x1952 $x73309 $x75128 (<= (+ Q_4 ?x835 ?x800 A_3 L_2) (- 5.0)))))
 (let (($x2679 (<= (+ ?x782 ?x1812 (* 2.0 A_4) A_1 (* (- 3.0) S_4) ?x2701) 0.0)))
 (let ((?x1797 (* (- 1.0) S_3)))
 (let ((?x2651 (* 2.0 A_4)))
 (let (($x28620 (<= (+ ?x1812 ?x2651 ?x2667 ?x2551 A_0 ?x1797 ?x773 ?x1449) 0.0)))
 (let (($x16218 (<= (+ ?x740 A_4 L_3 ?x803 ?x782 A_1 ?x1797 ?x791) 0.0)))
 (let (($x7652 (<= (+ A_2 ?x791 ?x1797) 0.0)))
 (let (($x4282 (<= (+ (* (- 1.0) S_4) ?x1450 ?x1449 L_1 ?x785) 0.0)))
 (let (($x2674 (<= (+ ?x1437 ?x740 A_4 ?x1792 (* (- 3.0) S_3) ?x800) 0.0)))
 (let (($x1421 (<= (+ ?x740 A_4 A_0 ?x773 (* (- 2.0) S_3) ?x800) 0.0)))
 (let (($x29350 (<= (+ ?x740 A_4 ?x794 L_2 ?x1816 (* (- 2.0) S_2) ?x1788 ?x800) 0.0)))
 (let (($x2233 (<= (+ Q_4 L_1 S_0 ?x784) 0.0)))
 (let (($x202826 (or $x678 $x2233 (<= (+ ?x1839 ?x794 L_2 S_4 ?x1816 ?x1788 ?x1448 ?x1840) 0.0))))
 (let (($x49135 (<= (+ ?x740 ?x9567 (* (- (/ 1.0 2.0)) S_3) ?x10099 ?x782 A_1) 0.0)))
 (let (($x30389 (<= (+ Q_4 ?x835 A_2 ?x791 ?x1831 ?x1832 (* 2.0 S_1) L_3) 0.0)))
 (let (($x1446 (<= (+ Q_4 ?x835 ?x1442 ?x1443 (* 4.0 S_1) L_3) 0.0)))
 (let (($x204676 (or $x1446 $x1952 (<= (+ Q_4 ?x835 ?x800 A_3 ?x784 L_0 S_1 L_2) 0.0) $x30389)))
 (let (($x45670 (<= (+ (* (- (/ 2.0 3.0)) L_1) (* (/ 2.0 3.0) A_1) (* (/ 1.0 3.0) S_4) ?x1797) 0.0)))
 (let (($x21928 (<= (+ (* (/ 3.0 4.0) A_0) (* (- (/ 3.0 4.0)) L_0) (* (/ 1.0 4.0) S_4) L_1 ?x785) 0.0)))
 (let (($x60899 (or (<= (+ L_3 ?x803 S_4 ?x782 A_1 ?x1797) 0.0) $x7652 (<= (+ L_3 ?x803 S_4 ?x10018 (* (- (/ 1.0 2.0)) S_3) ?x10048) 0.0))))
 (let (($x84735 (or $x678 $x2233 (<= (+ Q_4 ?x794 L_2 S_3 A_0 ?x773 L_1 ?x785) 0.0))))
 (let (($x3107 (<= (+ L_1 ?x1812 ?x785 (* (- 1.0) S_4) ?x1449 ?x1450) 0.0)))
 (let ((?x13944 (* 3.0 S_0)))
 (let (($x15964 (<= (+ (* 5.0 L_1) Q_4 ?x835 ?x1840 ?x13944 L_3 ?x2720 ?x1442 ?x2715) 0.0)))
 (let (($x204323 (or $x678 $x1877 $x1952 $x15964 (<= (+ Q_4 ?x835 ?x800 A_3 ?x1448 ?x785 S_0 ?x784 A_2) 0.0))))
 (let ((?x2730 (+ ?x782 ?x1812 ?x2651 A_1 L_3 ?x2710)))
 (let (($x73337 (<= 0.0 ?x2730)))
 (let ((?x1618 (* (- 4.0) S_1)))
 (let ((?x8253 (* 5.0 A_0)))
 (let (($x8252 (<= (+ ?x1419 ?x1410 ?x8253 ?x773 ?x1618 L_3 ?x1471 ?x1484) 0.0)))
 (let (($x2729 (<= (+ ?x1471 ?x1812 ?x2651 A_1 (* (- 3.0) S_1) L_3 ?x1428 ?x2710) 0.0)))
 (let (($x205614 (or $x2229 $x2729 $x5252 $x8252 (<= (+ ?x740 A_4 A_2 ?x791 ?x1437 ?x1436 L_3 ?x1816 ?x2551) 0.0))))
 (let (($x200604 (or $x4406 $x5252 $x7402 (<= (+ ?x740 A_4 ?x784 L_0 L_3 ?x1437 ?x1792 ?x2551) 0.0))))
 (let (($x203604 (or $x2229 $x5587 $x9750 (<= (+ ?x740 A_4 L_3 ?x803 ?x1437 A_1 ?x1843 A_0 ?x794) 0.0) (<= (+ ?x1812 ?x2651 ?x2667 ?x2551 ?x1816 ?x773 ?x1843 ?x791 ?x782 ?x794) 0.0))))
 (let (($x5311 (<= (+ (* 3.0 Q_4) A_0 ?x773 (* 2.0 S_3) ?x2738 ?x2739) 0.0)))
 (let ((?x1460 (* (- 4.0) A_2)))
 (let ((?x1458 (* 4.0 L_2)))
 (let (($x199162 (or (<= (+ ?x740 A_4 ?x784 L_0 ?x800 ?x1471 ?x1458 ?x1459 ?x1460) 0.0) $x5357 $x9750)))
 (let ((?x16226 (+ ?x740 A_4 L_3 ?x803 ?x782 A_1 ?x794)))
 (let (($x78425 (<= 0.0 ?x16226)))
 (let (($x74189 (not $x74188)))
 (let ((?x2704 (* (- 2.0) A_4)))
 (let (($x39607 (<= (+ ?x1839 ?x2704 ?x2701 ?x3976 ?x1831 L_0 S_0 L_2 L_1 A_2) 0.0)))
 (let (($x16080 (<= (+ Q_4 ?x835 A_0 ?x773 ?x2720 ?x1478 ?x1479 (* 4.0 A_2)) 0.0)))
 (let (($x1452 (<= (+ Q_4 ?x835 ?x1442 L_0 (* 2.0 S_0) L_3 ?x1448 ?x1449 ?x1450) 0.0)))
 (let (($x90470 (or $x678 $x2233 (<= (+ Q_4 L_3 ?x803 S_4 A_0 ?x773 L_1 ?x785) 0.0))))
 (let (($x51658 (or $x2167 (<= (+ ?x794 L_2 S_4 ?x1816 (* (- 2.0) S_2) ?x1788) 0.0))))
 (let (($x55513 (or $x2167 (<= (+ ?x794 L_2 S_3 A_0 (* (- 1.0) S_2) ?x773) 0.0))))
 (let ((?x1463 (* 4.0 A_3)))
 (let ((?x1423 (* (- 3.0) A_4)))
 (let ((?x1422 (* 3.0 Q_4)))
 (let ((?x8198 (+ ?x1422 ?x1423 (* (- 5.0) A_0) L_0 (* 4.0 S_0) ?x800 ?x1478 ?x1463)))
 (let (($x92652 (or $x678 $x1952 (<= ?x8198 0.0) (<= (+ Q_4 ?x835 A_0 ?x773 ?x800 ?x1448 ?x1840 ?x3976) 0.0))))
 (let (($x78578 (<= (+ Q_4 A_2 ?x791 L_3 ?x803) (- 5.0))))
 (let (($x73070 (<= (+ ?x782 Q_4 A_1 L_3 ?x803) (- 10.0))))
 (let (($x205356 (or (not (<= (+ ?x1830 Q_4 ?x1775 ?x1832 L_3 ?x1831 ?x803) 0.0)) $x5252 $x73070 $x78578)))
 (let (($x100209 (or (<= (+ ?x1839 ?x784 L_0 (* 3.0 S_2) ?x2667 ?x2551) 0.0) $x5252)))
 (let (($x87218 (or $x678 $x1952 (<= (+ ?x1478 ?x1839 ?x2704 ?x785 ?x13944 ?x800 ?x1442 ?x2802) 0.0) $x76588)))
 (let (($x15998 (<= (+ ?x782 Q_4 ?x835 A_1 ?x2701 ?x2738 ?x2739 ?x2802) 0.0)))
 (let (($x1435 (<= (+ Q_4 ?x835 ?x784 L_0 (* 2.0 S_2) L_3) 0.0)))
 (let (($x27822 (<= (+ ?x1839 A_2 ?x791 S_4 ?x2667 ?x2551) 0.0)))
 (let (($x203210 (or (<= (+ ?x782 ?x1422 A_1 (* 2.0 S_4) ?x1425 ?x2710) 0.0) $x5252 $x21928 $x27822)))
 (let (($x5353 (<= (+ Q_4 A_0 ?x773 ?x2738 ?x2701 ?x2739 ?x3976) 0.0)))
 (let (($x201459 (or (not (<= (+ L_1 ?x740 ?x785 ?x1449 L_3 ?x1450 ?x803) 0.0)) $x3733 (not (<= (+ ?x740 ?x784 L_0 ?x2720 ?x2667 ?x2715 ?x2551) 0.0)) $x9750)))
 (let (($x208227 (or (<= (+ Q_4 ?x784 L_0 (* 2.0 S_1) L_2 ?x794) 0.0) $x9750)))
 (let ((?x1588 (* 4.0 A_2)))
 (let ((?x1589 (* (- 4.0) L_2)))
 (let (($x8211 (<= (+ ?x740 A_4 ?x784 L_0 ?x1425 ?x1589 ?x1588 ?x1484) 0.0)))
 (let (($x88967 (or $x678 $x1452 $x1952 (not (<= (+ ?x782 Q_4 A_1 ?x1438 ?x800 ?x1439 A_3) 0.0)) (not $x8211))))
 (let (($x33738 (<= (+ ?x740 A_2 ?x791 (* (- 1.0) S_4) ?x784 L_0 ?x782 A_1) 0.0)))
 (let (($x1777 (<= (+ ?x1419 ?x1831 ?x1832 (* (- 1.0) S_4) ?x1830 ?x1775) 0.0)))
 (let (($x199979 (or (<= (+ ?x800 A_3 ?x782 A_1 ?x1797 L_2 ?x794) 0.0) $x9750 $x76588)))
 (let (($x1465 (<= (+ Q_4 ?x835 A_0 ?x773 ?x1380 ?x1458 ?x1460 ?x1463) 0.0)))
 (let (($x18890 (<= (+ Q_4 ?x2667 ?x2551 (* 2.0 S_4) A_0 ?x773 L_2 ?x794) 0.0)))
 (let (($x203991 (or (<= (+ Q_4 L_3 ?x803 S_4 ?x782 A_1 L_2 ?x794) 0.0) $x9750 $x18890)))
 (let (($x73620 (<= (+ Q_4 A_0 ?x773 L_2 ?x794) (- 10.0))))
 (let (($x72369 (<= (+ ?x782 Q_4 A_1 L_2 ?x794) (- 5.0))))
 (let (($x41447 (<= (+ ?x794 L_2 (* (- 1.0) S_2) ?x773 S_0 ?x800 L_1 A_3) 0.0)))
 (let (($x13207 (<= (+ Q_4 ?x835 ?x794 L_2 ?x1448 (* 2.0 S_0) ?x800 ?x1831 ?x3976) 0.0)))
 (let (($x28610 (<= (+ ?x740 A_4 L_3 ?x803 A_0 ?x773 (* (- 1.0) S_2) ?x791) 0.0)))
 (let (($x5304 (<= (+ ?x740 A_0 ?x773 (* (- 2.0) S_2) ?x791 A_2) 0.0)))
 (let (($x201662 (or $x1435 $x1952 (<= (+ ?x1839 ?x2704 ?x2701 ?x3976 ?x784 L_0 S_2 ?x1438) 0.0))))
 (let (($x75888 (<= 0.0 (+ ?x740 A_4 A_2 ?x791 L_3 ?x2551))))
 (let (($x3120 (<= (+ ?x782 Q_4 A_1 ?x1438 ?x800 ?x1439 A_3) 0.0)))
 (let (($x41768 (or $x2167 (<= (+ L_3 ?x803 S_4 A_0 ?x773 (* (- 1.0) S_2)) 0.0))))
 (let (($x2174 (not $x2275)))
 (let (($x80680 (or $x2174 $x2258 $x5587 (not $x9750) (<= (+ ?x740 A_4 L_3 ?x803 ?x1437 A_1 ?x1797) 0.0))))
 (let (($x201308 (or (<= (+ L_1 Q_4 ?x785 (* 2.0 S_2) L_3 ?x803) 0.0) $x5252)))
 (let (($x208250 (or (<= (+ Q_4 ?x1831 ?x1832 (* 3.0 S_1) L_3 ?x803) 0.0) $x5252 (<= (+ Q_4 A_2 ?x791 ?x784 L_0 S_1 L_3 ?x803) 0.0))))
 (let ((?x2709 (* (- 3.0) S_1)))
 (let ((?x7278 (* (- 5.0) L_1)))
 (let (($x101032 (or (<= (+ ?x740 A_4 ?x1428 ?x773 ?x1436 ?x800 ?x1437 ?x1438 ?x1439) 0.0) $x2229 $x5587 (<= (+ ?x7278 ?x740 A_4 ?x1792 ?x2709 ?x1438 ?x1428 ?x2739) 0.0) $x9750)))
 (let (($x103552 (or $x678 (<= (+ (* 4.0 Q_4) ?x1428 ?x1429 S_4 ?x1478 ?x1479) 0.0) $x2233)))
 (let (($x74985 (<= (+ L_1 ?x785 ?x773 A_0) (- 5.0))))
 (let ((?x1836 (* (- 1.0) S_2)))
 (let ((?x28644 (* (/ 1.0 3.0) S_3)))
 (let ((?x30408 (* (- (/ 2.0 3.0)) L_0)))
 (let ((?x29473 (* (/ 2.0 3.0) A_0)))
 (let (($x101771 (or $x2167 $x29350 (<= (+ ?x740 ?x794 L_2 A_0 ?x1836 ?x773 ?x800 A_3) 0.0))))
 (let (($x78571 (or $x2215 $x4282 $x74985 (<= (+ (* (- (/ 1.0 2.0)) L_1) (* (/ 1.0 2.0) A_1) ?x17829) (- 5.0)))))
 (let ((?x4379 (* 4.0 L_3)))
 (let ((?x4378 (* 3.0 S_4)))
 (let ((?x1806 (* 4.0 Q_4)))
 (let (($x3533 (<= (+ L_1 ?x740 ?x785 ?x1449 L_3 ?x1450 ?x803) 0.0)))
 (let (($x101274 (or (<= (+ L_1 ?x740 A_4 ?x785 ?x2667 ?x2720 ?x2715 ?x2710) 0.0) $x3533 $x5252)))
 (let (($x4324 (<= (+ ?x1812 A_0 ?x773 (* (- 3.0) S_3) ?x2701 ?x3976) 0.0)))
 (let (($x203676 (or $x1481 $x2674 (<= (+ ?x782 ?x740 A_1 (* (- 2.0) S_3) ?x800 A_3) 0.0) $x4324 $x7652)))
 (let (($x5337 (<= (+ ?x1419 ?x784 L_0 ?x5338 ?x2720 ?x2715) 0.0)))
 (let (($x91976 (or (<= (+ ?x740 A_4 A_0 ?x773 ?x800 ?x1438 ?x1439) 0.0) $x2215 (<= (+ ?x1437 Q_4 ?x1792 L_0 L_2 ?x784 ?x794) 0.0) $x5337)))
 (let (($x1432 (<= (+ ?x740 A_4 ?x1428 ?x1429 (* (- 4.0) S_2) ?x800) 0.0)))
 (let (($x99031 (or (<= (+ ?x1437 ?x1422 ?x1792 S_4 ?x2738 ?x2739) 0.0) (<= (+ ?x1839 A_0 ?x773 S_4 ?x1438 ?x1439) 0.0) $x9750)))
 (let (($x22102 (<= (+ (* (/ 3.0 4.0) A_0) (* (- (/ 3.0 4.0)) L_0) (* (/ 1.0 4.0) S_4) ?x1836) 0.0)))
 (let (($x3519 (<= (+ ?x740 (* (- 1.0) S_4) ?x800 A_3) 0.0)))
 (let (($x201064 (or $x1952 (<= (+ Q_4 ?x835 ?x794 L_2 (* 2.0 S_3) L_3) 0.0))))
 (let (($x94137 (or $x1367 (not (<= (+ ?x782 Q_4 ?x2651 A_1 L_3 ?x2710) 0.0)) $x2679 $x4282)))
 (let (($x204890 (or (<= (+ ?x1422 ?x1423 ?x784 L_0 (* 4.0 S_3) ?x1425) 0.0) $x1952)))
 (let (($x200347 (or $x1952 (<= (+ L_1 ?x1839 ?x2704 ?x785 (* 3.0 S_3) ?x2667) 0.0))))
 (let (($x102538 (or $x1432 $x2167 (<= (+ ?x740 ?x1816 ?x1788 (* (- 3.0) S_2) ?x800 A_3) 0.0))))
 (let (($x41 (>= A_1 A_0)))
 (let (($x42 (>= A_2 A_1)))
 (let (($x43 (>= A_3 A_2)))
 (let (($x44 (>= A_4 A_3)))
 (and (<= ?x782 ?x773) $x44 $x43 $x42 $x41 (<= ?x800 ?x791) (<= ?x791 ?x782) (or (= ?x800 ?x791) (<= (+ Q_4 S_3 L_3 ?x803) 0.0)) (or (= ?x800 ?x791) (<= (+ ?x782 S_3 ?x1843 L_3 A_0 ?x803) 0.0)) $x102538 (or (= ?x791 ?x782) (<= (+ Q_4 S_2 L_2 ?x794) 0.0)) (or (= ?x791 ?x782) $x1367 $x2679 $x3519) (or (= ?x791 ?x782) (<= (+ ?x782 S_2 ?x1843 L_2 A_0 ?x794) 0.0)) $x200347 $x204890 (or (<= (+ Q_4 A_0 ?x773 L_1 ?x785) (- 5.0)) $x678 $x2233) (or $x678 (<= (+ Q_4 S_1 L_1 ?x785) 0.0) $x2233) $x94137 $x201064 (or $x1421 $x2275 $x4324 $x7652) (or $x5252 $x74739) (or $x1432 (<= (+ ?x740 ?x1836 ?x782 A_1) 0.0)) (or $x1421 $x2258 $x2275) (or $x1367 $x2679 $x3519 $x13212) (or $x1432 $x2167 $x2229) (or $x2167 $x22102) $x99031 (or $x1432 $x2167 $x5304) $x91976 $x203676 $x101274 (or (<= (+ ?x1806 A_0 ?x773 ?x4378 ?x4379 ?x1484) 0.0) $x4361 $x5252 $x27822) $x78571 (or $x3733 $x5252 $x8211) $x101771 (or $x3120 $x5353 $x9750) (or $x4361 $x5252 (<= (+ Q_4 A_0 ?x773 L_3 ?x803) (- 15.0)) $x78578) (or $x2167 (<= (+ ?x29473 ?x30408 ?x28644 ?x1836) 0.0)) (or (<= (+ ?x740 ?x1836 ?x782 A_1) 0.0) $x5587 $x28610) (or (<= (+ ?x740 ?x1836 ?x782 A_1) 0.0) $x29350) (or (<= (+ ?x782 A_1 ?x1797) (- 5.0)) $x7652 $x74985) (or $x2167 (<= (+ A_0 ?x773 ?x1836) (- 5.0))) (or $x2258 $x2674 $x2697) (or $x2215 $x2679 $x3107 $x5353 $x9750) $x103552 (or $x678 (<= (+ ?x1839 A_0 ?x773 S_2 ?x1448 ?x1840) 0.0) $x2233) (or $x678 $x1877 $x2233) (or $x1367 $x2737 $x5337 $x74188) (or $x678 $x2233 $x76588) (or $x3733 $x5844 $x9750) (or $x3733 $x9750 $x72369) (or $x5357 $x5587 $x9750 (<= ?x16226 0.0)) (or $x2258 $x2275 $x5587 $x28620) $x101032 (or $x2167 $x2229 $x5587 $x28610) (or (<= (+ ?x740 ?x784 L_0 ?x2720 ?x2667 ?x2715 ?x2551) 0.0) $x5252 $x8211) $x208250 $x201308 $x80680 (or $x674 $x1952 $x73309 $x75128 $x75888) $x41768 (or $x1465 $x3120 $x9750) (or $x1446 $x1952 $x30389 $x75888) $x201662 (or $x2167 $x5304 $x5587 $x28610) (or $x678 $x76588 $x10376) (or $x678 $x1952 $x13207 $x76588) (or $x678 $x2167 $x41447 $x76588) (or $x1367 $x2215 $x2679 $x5337) (or $x9750 $x72369 $x73620) $x203991 (or $x678 (<= (+ ?x1422 ?x1816 ?x1788 S_3 ?x1789 ?x1833) 0.0) $x2233) (or $x1465 $x1952 $x2737 $x9750) $x199979 (or $x2275 $x7652 (<= (+ ?x10018 ?x10048 (* (/ 1.0 2.0) S_4) ?x1797) 0.0)) (or $x1777 $x2215 $x13212 $x33738 $x74189) (or $x1367 $x1777 $x13212 $x33738 $x74188) (or $x2174 $x2258 $x5587 $x16218) (or $x1952 $x2685 $x73337) (or $x2229 $x2729 $x5252 $x8252 $x9750) $x88967 $x208227 $x201459 (or $x678 $x1452 $x1952 $x5252 $x37451) (or $x5252 (<= (+ L_1 ?x785 S_2 L_3 ?x791 A_2 ?x803) 0.0)) (or $x1952 $x5353 $x9750 $x15998) (or $x7652 (<= (+ ?x784 L_0 ?x1797 (* 2.0 S_1)) 0.0)) (or $x2275 $x7652 (<= (+ ?x10018 (* (- (/ 1.0 2.0)) S_3) ?x10048) (- 5.0))) $x203210 (or $x678 (<= (+ ?x1839 ?x1816 ?x1788 ?x1789 ?x800 ?x1833 A_3) 0.0) $x2233) (or $x678 $x74578 $x76588) (or $x1435 $x1952 (not (<= ?x2730 0.0))) (or $x1952 $x9750 $x15998 $x76588) $x87218 $x100209 $x205356 $x92652 $x55513 $x51658 (or $x678 $x1877 $x31930) (or $x678 $x1452 $x1877 $x1952 $x39607) $x90470 (or $x7652 (not (<= (+ L_3 ?x782) 0.0)) $x28620 $x49135) (or $x678 $x1452 $x1952 $x16080 $x74188) (or $x678 (<= ?x1485 0.0) $x1952 $x39607 $x78425) (or $x678 $x1952 $x39607 $x74189 $x78425) $x199162 (or (<= (+ ?x782 ?x1839 A_1 S_3 ?x1438 ?x1439) 0.0) $x5311 $x9750) $x203604 $x200604 (or (<= (+ L_1 ?x785 S_3 ?x2667 ?x1449 ?x1450 ?x2551) 0.0) $x5252) $x205614 (or $x678 $x1877 $x1952 $x15964 $x73337) $x204323 (or $x1481 $x2215 $x2679 $x3107) $x84735 (or $x2215 (<= (+ (* (/ 1.0 2.0) L_1) ?x18166 ?x17829 S_2) 0.0)) $x60899 (or $x7652 $x21928 $x45670) $x204676 (or $x1421 $x7652 $x49135) $x202826 (or $x2167 $x2229 $x29350) (or $x1367 $x2229 $x2737 $x13212 $x74188) (or $x1421 $x2229 $x2674 $x7652) (or $x2215 $x4282 $x17830 $x78994) (or $x2229 $x5587 $x7652 $x16218 $x28620) (or $x1481 $x2215 $x2229 $x2679 $x13212) (or $x1382 $x2215 $x2229 $x13212 $x74189) $x84998 $x200980 (or $x1367 $x1382 $x2229 $x13212 $x74188) $x202942 $x87307 $x85020 (or $x2215 (<= (+ ?x9567 ?x10099 (* (- 1.0) S_4) ?x25631) 0.0)) (or $x9750 $x73864) $x204270 $x102916 $x207342 (or $x5252 (<= (+ ?x784 L_0 S_2 L_3 ?x782 A_1 ?x803) 0.0)) $x206074 (or $x678 $x3733 $x32344 $x74578) (or $x2233 $x3733 $x84299) $x90857 (or $x678 $x3733 $x4233 $x4340 $x5252) (or $x678 $x4233 $x5252 $x37451) $x205432 (or $x9750 $x39500 $x76588) $x95136 $x204355 (or $x5252 (<= (+ L_3 ?x791 A_2 ?x803) (- 5.0))) $x207866 (or $x678 $x3733 $x5333 $x10376) (or $x9750 (<= (+ ?x784 L_0 S_2 ?x1437 ?x1438 ?x1792 ?x1439) 0.0)) $x104710 (or $x9750 (<= (+ ?x784 L_0 S_3 ?x1830 ?x2738 ?x1775 ?x2739) 0.0)) $x207359 (or $x678 $x2215 $x3733 $x5333 $x35969) $x91176 (or $x3733 $x5252 (not (<= 0.0 (+ ?x7655 ?x7622 ?x7633 ?x7669 ?x803)))) (or $x678 $x10376 (<= (+ ?x5338 ?x1816 ?x1788 ?x1380 ?x1789 ?x1833 ?x2802) 0.0)) (or $x3733 $x9750 $x73620 $x82027) $x206394 (or $x5252 (<= (+ ?x784 L_0 S_1 L_3 ?x791 A_2 ?x803) 0.0)) (or $x5252 (<= (+ ?x784 L_0 S_2 ?x2667 ?x1449 ?x1450 ?x2551) 0.0)) (or $x3733 $x5252 $x7402 $x73070) (or (<= (+ ?x784 L_0 S_3 ?x1425 ?x2720 ?x2715 ?x2710) 0.0) $x5252) $x93746 $x94857 $x91483 $x99375 (or $x2233 $x3733 $x9527 $x74739) (or $x5252 (not $x5844) $x73864) (or $x3733 $x4361 $x5252 $x32344 (not $x76588)) $x200613 (or $x678 $x3733 $x4340 $x74578) (or $x5252 (<= (+ ?x10018 ?x10099 ?x25631 ?x1843 L_3 ?x782 ?x803) 0.0)) $x88189 $x86641 $x104867 (or $x9750 (<= (+ ?x784 L_0 S_1 ?x782 L_2 A_1 ?x794) 0.0)) $x205840 (or $x678 $x3733 $x5333 $x74578) (or $x3733 $x9750 $x82027 $x84299) (or $x678 $x9527 $x74739 $x86662) (or $x678 $x3897 $x84299 $x86662) $x1487 (<= (+ Q_4 ?x835 S_4 L_3) 0.0) (<= (+ ?x784 L_0 S_0) 0.0) (<= (+ ?x1843 S_0) 0.0) (<= (+ L_3 ?x803 S_3) 0.0) (<= (+ ?x1797 S_2) 0.0) (<= (+ (* (- 1.0) S_4) S_3) 0.0) (<= (+ L_1 ?x785 S_1) 0.0) (<= (+ S_2 L_2 ?x794) 0.0) (<= (+ ?x1836 S_1) 0.0)))))))))))))))))))))))))))))))))))))))))))))))))))))))))))))))))))))))))))))))))))))))))))))))))))))))))))))))))))))))))))))))))))))))))))))))))))))))))))))))))))))))))))))))))))))))))))))))))))))))))))))))))))))))))))))))))))))))))))))))))))))))))))))))))))))))))))))))))))
(check-sat)
